-379.0 6.0 2.0 7.0 7.0 6.0 0.0 1.0 10.0 10.0 2.0 8.0 5.0 9.0 8.0 10.0 5.0 4.0 6.0 5.0 9.0 9.0 4.0 5.0 4.0 9.0 7.0 3.0 5.0 6.0 9.0 9.0 7.0 2.0 6.0 7.0 1.0 2.0 1.0 10.0 6.0 8.0 3.0 8.0 1.0 7.0 6.0 6.0 5.0 5.0 4.0 3.0 10.0 9.0 4.0 8.0 9.0 4.0 8.0 7.0 2.0 6.0 3.0 1.0 7.0 8.0 1.0 4.0 
6.0 -314.0 8.0 7.0 1.0 7.0 2.0 1.0 3.0 6.0 9.0 9.0 9.0 6.0 2.0 4.0 9.0 4.0 5.0 9.0 3.0 2.0 3.0 7.0 9.0 8.0 2.0 2.0 1.0 5.0 5.0 3.0 10.0 8.0 10.0 6.0 10.0 6.0 4.0 2.0 3.0 6.0 8.0 2.0 9.0 7.0 10.0 7.0 3.0 2.0 2.0 1.0 7.0 2.0 3.0 8.0 3.0 3.0 4.0 2.0 3.0 2.0 4.0 0.0 0.0 0.0 0.0 0.0 
2.0 8.0 -348.0 7.0 5.0 1.0 7.0 5.0 8.0 8.0 10.0 8.0 1.0 3.0 3.0 9.0 0.0 10.0 5.0 3.0 6.0 1.0 8.0 6.0 7.0 4.0 7.0 6.0 1.0 10.0 4.0 5.0 10.0 4.0 3.0 7.0 2.0 8.0 9.0 6.0 5.0 6.0 3.0 0.0 3.0 0.0 7.0 0.0 8.0 6.0 7.0 2.0 9.0 5.0 10.0 8.0 1.0 1.0 5.0 1.0 5.0 3.0 6.0 9.0 5.0 8.0 0.0 8.0 
7.0 7.0 7.0 -348.0 10.0 6.0 7.0 9.0 0.0 3.0 3.0 10.0 6.0 9.0 1.0 1.0 8.0 5.0 5.0 6.0 6.0 10.0 3.0 9.0 0.0 2.0 3.0 1.0 6.0 4.0 3.0 1.0 4.0 3.0 10.0 6.0 8.0 7.0 3.0 2.0 6.0 8.0 4.0 3.0 1.0 3.0 7.0 4.0 9.0 1.0 4.0 2.0 4.0 10.0 5.0 7.0 10.0 1.0 0.0 4.0 7.0 8.0 9.0 9.0 9.0 2.0 9.0 1.0 
7.0 1.0 5.0 10.0 -362.0 7.0 9.0 2.0 10.0 1.0 5.0 4.0 0.0 5.0 5.0 0.0 6.0 8.0 9.0 2.0 0.0 6.0 4.0 10.0 0.0 10.0 5.0 3.0 10.0 6.0 4.0 4.0 6.0 7.0 10.0 3.0 6.0 2.0 0.0 10.0 5.0 6.0 4.0 9.0 5.0 7.0 2.0 4.0 10.0 8.0 9.0 9.0 10.0 0.0 4.0 4.0 6.0 3.0 8.0 3.0 7.0 0.0 8.0 8.0 5.0 7.0 3.0 6.0 
6.0 7.0 1.0 6.0 7.0 -382.0 0.0 10.0 7.0 10.0 5.0 9.0 9.0 5.0 9.0 7.0 1.0 1.0 7.0 3.0 2.0 8.0 8.0 6.0 9.0 2.0 4.0 5.0 7.0 10.0 8.0 9.0 10.0 4.0 1.0 7.0 9.0 9.0 9.0 2.0 4.0 6.0 2.0 9.0 4.0 9.0 4.0 4.0 3.0 0.0 6.0 8.0 0.0 8.0 3.0 10.0 3.0 7.0 4.0 6.0 7.0 3.0 1.0 6.0 8.0 7.0 9.0 2.0 
0.0 2.0 7.0 7.0 9.0 0.0 -332.0 10.0 7.0 9.0 6.0 1.0 3.0 3.0 10.0 10.0 10.0 6.0 10.0 2.0 10.0 2.0 7.0 2.0 0.0 8.0 9.0 7.0 8.0 7.0 3.0 9.0 7.0 2.0 10.0 3.0 9.0 2.0 4.0 7.0 0.0 2.0 0.0 9.0 1.0 1.0 9.0 2.0 5.0 1.0 7.0 5.0 5.0 9.0 8.0 3.0 3.0 1.0 1.0 4.0 0.0 5.0 0.0 0.0 4.0 5.0 8.0 6.0 
1.0 1.0 5.0 9.0 2.0 10.0 10.0 -331.0 1.0 2.0 0.0 0.0 1.0 8.0 10.0 7.0 9.0 1.0 6.0 0.0 2.0 7.0 6.0 4.0 7.0 10.0 3.0 6.0 4.0 6.0 3.0 7.0 6.0 1.0 4.0 8.0 6.0 10.0 3.0 6.0 7.0 3.0 6.0 8.0 3.0 3.0 6.0 0.0 1.0 10.0 4.0 8.0 1.0 5.0 7.0 9.0 0.0 8.0 1.0 8.0 4.0 10.0 3.0 2.0 0.0 8.0 7.0 7.0 
10.0 3.0 8.0 0.0 10.0 7.0 7.0 1.0 -374.0 10.0 1.0 10.0 4.0 5.0 6.0 5.0 10.0 10.0 4.0 10.0 5.0 8.0 4.0 10.0 3.0 4.0 8.0 4.0 9.0 6.0 5.0 8.0 0.0 8.0 10.0 9.0 2.0 7.0 8.0 2.0 1.0 8.0 0.0 6.0 7.0 1.0 9.0 4.0 9.0 9.0 4.0 2.0 7.0 7.0 9.0 0.0 2.0 4.0 0.0 0.0 7.0 6.0 5.0 2.0 4.0 8.0 6.0 6.0 
10.0 6.0 8.0 3.0 1.0 10.0 9.0 2.0 10.0 -356.0 7.0 9.0 8.0 1.0 3.0 8.0 0.0 3.0 5.0 2.0 6.0 7.0 3.0 4.0 8.0 8.0 1.0 0.0 6.0 5.0 9.0 10.0 8.0 9.0 2.0 1.0 0.0 5.0 4.0 7.0 9.0 9.0 5.0 5.0 2.0 0.0 0.0 10.0 8.0 1.0 9.0 6.0 9.0 5.0 10.0 1.0 3.0 4.0 5.0 3.0 8.0 7.0 8.0 0.0 5.0 7.0 5.0 4.0 
2.0 9.0 10.0 3.0 5.0 5.0 6.0 0.0 1.0 7.0 -325.0 2.0 9.0 0.0 6.0 6.0 7.0 4.0 10.0 1.0 10.0 0.0 8.0 0.0 3.0 5.0 7.0 1.0 2.0 7.0 2.0 4.0 3.0 1.0 9.0 1.0 4.0 7.0 5.0 1.0 5.0 10.0 10.0 10.0 1.0 1.0 2.0 6.0 1.0 8.0 2.0 9.0 9.0 3.0 5.0 10.0 4.0 3.0 0.0 7.0 10.0 4.0 1.0 10.0 9.0 6.0 4.0 2.0 
8.0 9.0 8.0 10.0 4.0 9.0 1.0 0.0 10.0 9.0 2.0 -327.0 8.0 9.0 10.0 0.0 0.0 4.0 1.0 4.0 6.0 8.0 10.0 3.0 0.0 7.0 8.0 1.0 1.0 5.0 9.0 6.0 4.0 8.0 10.0 8.0 4.0 1.0 4.0 0.0 0.0 2.0 5.0 9.0 1.0 1.0 2.0 10.0 1.0 0.0 1.0 3.0 5.0 9.0 1.0 10.0 5.0 5.0 5.0 0.0 6.0 2.0 2.0 3.0 10.0 1.0 10.0 9.0 
5.0 9.0 1.0 6.0 0.0 9.0 3.0 1.0 4.0 8.0 9.0 8.0 -354.0 2.0 4.0 2.0 1.0 6.0 5.0 5.0 10.0 5.0 5.0 9.0 10.0 3.0 9.0 9.0 10.0 3.0 7.0 5.0 8.0 2.0 3.0 9.0 1.0 3.0 0.0 8.0 7.0 0.0 8.0 10.0 4.0 2.0 1.0 5.0 9.0 9.0 2.0 9.0 10.0 0.0 5.0 7.0 7.0 4.0 2.0 6.0 9.0 9.0 1.0 3.0 0.0 9.0 0.0 9.0 
9.0 6.0 3.0 9.0 5.0 5.0 3.0 8.0 5.0 1.0 0.0 9.0 2.0 -360.0 9.0 6.0 5.0 1.0 8.0 1.0 8.0 7.0 3.0 0.0 9.0 10.0 4.0 1.0 9.0 8.0 4.0 2.0 10.0 8.0 9.0 10.0 0.0 2.0 7.0 7.0 8.0 4.0 6.0 7.0 8.0 0.0 0.0 5.0 10.0 0.0 9.0 1.0 4.0 1.0 5.0 4.0 6.0 10.0 0.0 3.0 4.0 4.0 10.0 10.0 9.0 9.0 7.0 3.0 
8.0 2.0 3.0 1.0 5.0 9.0 10.0 10.0 6.0 3.0 6.0 10.0 4.0 9.0 -367.0 3.0 10.0 5.0 2.0 8.0 9.0 10.0 5.0 10.0 1.0 1.0 6.0 9.0 7.0 5.0 2.0 7.0 9.0 7.0 1.0 6.0 0.0 4.0 7.0 6.0 3.0 8.0 5.0 0.0 8.0 6.0 1.0 7.0 6.0 9.0 6.0 1.0 5.0 0.0 2.0 3.0 10.0 6.0 8.0 8.0 8.0 2.0 1.0 8.0 7.0 1.0 8.0 4.0 
10.0 4.0 9.0 1.0 0.0 7.0 10.0 7.0 5.0 8.0 6.0 0.0 2.0 6.0 3.0 -310.0 2.0 0.0 10.0 10.0 8.0 3.0 5.0 4.0 4.0 0.0 2.0 9.0 1.0 4.0 2.0 8.0 8.0 4.0 5.0 10.0 1.0 7.0 9.0 8.0 5.0 0.0 2.0 4.0 7.0 7.0 0.0 3.0 3.0 1.0 10.0 3.0 8.0 0.0 0.0 2.0 1.0 10.0 0.0 7.0 2.0 7.0 1.0 10.0 3.0 1.0 1.0 10.0 
5.0 9.0 0.0 8.0 6.0 1.0 10.0 9.0 10.0 0.0 7.0 0.0 1.0 5.0 10.0 2.0 -336.0 1.0 9.0 4.0 6.0 1.0 3.0 5.0 1.0 1.0 9.0 6.0 7.0 8.0 7.0 6.0 0.0 5.0 9.0 0.0 6.0 6.0 9.0 4.0 10.0 7.0 7.0 6.0 5.0 7.0 3.0 2.0 2.0 7.0 1.0 4.0 0.0 2.0 5.0 9.0 10.0 6.0 0.0 0.0 7.0 3.0 3.0 9.0 6.0 10.0 4.0 5.0 
4.0 4.0 10.0 5.0 8.0 1.0 6.0 1.0 10.0 3.0 4.0 4.0 6.0 1.0 5.0 0.0 1.0 -313.0 3.0 9.0 0.0 6.0 0.0 2.0 3.0 7.0 3.0 10.0 9.0 7.0 2.0 10.0 6.0 4.0 10.0 7.0 3.0 7.0 8.0 1.0 4.0 8.0 6.0 2.0 3.0 4.0 2.0 6.0 5.0 4.0 2.0 6.0 2.0 2.0 8.0 7.0 3.0 7.0 1.0 5.0 4.0 9.0 0.0 1.0 10.0 2.0 3.0 7.0 
6.0 5.0 5.0 5.0 9.0 7.0 10.0 6.0 4.0 5.0 10.0 1.0 5.0 8.0 2.0 10.0 9.0 3.0 -330.0 1.0 10.0 7.0 0.0 0.0 2.0 5.0 0.0 4.0 7.0 0.0 1.0 4.0 10.0 4.0 2.0 0.0 9.0 9.0 4.0 10.0 0.0 9.0 8.0 2.0 8.0 5.0 2.0 4.0 6.0 1.0 4.0 0.0 10.0 3.0 2.0 10.0 8.0 2.0 1.0 2.0 6.0 8.0 4.0 4.0 4.0 6.0 2.0 10.0 
5.0 9.0 3.0 6.0 2.0 3.0 2.0 0.0 10.0 2.0 1.0 4.0 5.0 1.0 8.0 10.0 4.0 9.0 1.0 -346.0 8.0 8.0 3.0 8.0 1.0 5.0 3.0 2.0 1.0 2.0 4.0 10.0 7.0 8.0 9.0 9.0 4.0 7.0 2.0 9.0 3.0 7.0 8.0 9.0 8.0 2.0 9.0 7.0 6.0 4.0 7.0 9.0 4.0 9.0 2.0 7.0 9.0 6.0 4.0 9.0 3.0 1.0 0.0 5.0 1.0 0.0 9.0 3.0 
9.0 3.0 6.0 6.0 0.0 2.0 10.0 2.0 5.0 6.0 10.0 6.0 10.0 8.0 9.0 8.0 6.0 0.0 10.0 8.0 -325.0 6.0 5.0 4.0 10.0 2.0 4.0 3.0 6.0 1.0 1.0 2.0 0.0 4.0 7.0 7.0 7.0 8.0 7.0 6.0 2.0 0.0 4.0 9.0 3.0 7.0 1.0 3.0 7.0 2.0 4.0 9.0 5.0 2.0 0.0 7.0 0.0 3.0 6.0 0.0 1.0 6.0 2.0 8.0 5.0 3.0 8.0 4.0 
9.0 2.0 1.0 10.0 6.0 8.0 2.0 7.0 8.0 7.0 0.0 8.0 5.0 7.0 10.0 3.0 1.0 6.0 7.0 8.0 6.0 -359.0 2.0 5.0 7.0 10.0 2.0 10.0 7.0 6.0 7.0 2.0 2.0 6.0 2.0 9.0 8.0 8.0 1.0 5.0 2.0 10.0 9.0 10.0 9.0 1.0 6.0 4.0 0.0 10.0 2.0 2.0 1.0 1.0 9.0 4.0 6.0 7.0 0.0 2.0 10.0 5.0 1.0 6.0 8.0 2.0 7.0 5.0 
4.0 3.0 8.0 3.0 4.0 8.0 7.0 6.0 4.0 3.0 8.0 10.0 5.0 3.0 5.0 5.0 3.0 0.0 0.0 3.0 5.0 2.0 -314.0 9.0 3.0 2.0 8.0 7.0 6.0 0.0 1.0 0.0 3.0 7.0 0.0 3.0 8.0 6.0 10.0 8.0 9.0 0.0 9.0 6.0 5.0 9.0 5.0 5.0 2.0 3.0 0.0 7.0 0.0 0.0 4.0 9.0 8.0 8.0 1.0 3.0 9.0 3.0 9.0 1.0 9.0 2.0 5.0 3.0 
5.0 7.0 6.0 9.0 10.0 6.0 2.0 4.0 10.0 4.0 0.0 3.0 9.0 0.0 10.0 4.0 5.0 2.0 0.0 8.0 4.0 5.0 9.0 -366.0 2.0 9.0 7.0 4.0 2.0 0.0 9.0 8.0 2.0 10.0 5.0 3.0 3.0 10.0 8.0 3.0 2.0 9.0 4.0 0.0 5.0 10.0 4.0 10.0 9.0 9.0 7.0 9.0 5.0 1.0 5.0 1.0 5.0 10.0 0.0 9.0 1.0 8.0 2.0 0.0 10.0 6.0 8.0 10.0 
4.0 9.0 7.0 0.0 0.0 9.0 0.0 7.0 3.0 8.0 3.0 0.0 10.0 9.0 1.0 4.0 1.0 3.0 2.0 1.0 10.0 7.0 3.0 2.0 -340.0 5.0 5.0 1.0 8.0 0.0 9.0 3.0 3.0 2.0 5.0 3.0 5.0 8.0 3.0 6.0 9.0 7.0 9.0 8.0 8.0 1.0 0.0 5.0 7.0 10.0 6.0 2.0 9.0 10.0 4.0 7.0 10.0 4.0 4.0 6.0 5.0 3.0 7.0 8.0 6.0 8.0 3.0 5.0 
9.0 8.0 4.0 2.0 10.0 2.0 8.0 10.0 4.0 8.0 5.0 7.0 3.0 10.0 1.0 0.0 1.0 7.0 5.0 5.0 2.0 10.0 2.0 9.0 5.0 -336.0 9.0 7.0 5.0 2.0 1.0 5.0 10.0 7.0 2.0 10.0 0.0 2.0 8.0 8.0 2.0 3.0 1.0 6.0 6.0 3.0 4.0 7.0 3.0 0.0 6.0 4.0 2.0 10.0 10.0 10.0 0.0 1.0 7.0 7.0 5.0 8.0 3.0 0.0 1.0 10.0 4.0 0.0 
7.0 2.0 7.0 3.0 5.0 4.0 9.0 3.0 8.0 1.0 7.0 8.0 9.0 4.0 6.0 2.0 9.0 3.0 0.0 3.0 4.0 2.0 8.0 7.0 5.0 9.0 -379.0 4.0 3.0 9.0 10.0 6.0 8.0 6.0 7.0 9.0 4.0 9.0 5.0 2.0 8.0 8.0 7.0 6.0 3.0 7.0 5.0 7.0 1.0 5.0 1.0 8.0 4.0 9.0 7.0 8.0 6.0 10.0 10.0 2.0 5.0 8.0 2.0 8.0 5.0 2.0 2.0 8.0 
3.0 2.0 6.0 1.0 3.0 5.0 7.0 6.0 4.0 0.0 1.0 1.0 9.0 1.0 9.0 9.0 6.0 10.0 4.0 2.0 3.0 10.0 7.0 4.0 1.0 7.0 4.0 -337.0 10.0 6.0 1.0 5.0 7.0 7.0 1.0 9.0 10.0 7.0 2.0 10.0 3.0 9.0 5.0 7.0 1.0 6.0 0.0 4.0 8.0 3.0 0.0 1.0 3.0 8.0 9.0 10.0 8.0 1.0 4.0 7.0 7.0 7.0 7.0 3.0 2.0 10.0 2.0 2.0 
5.0 1.0 1.0 6.0 10.0 7.0 8.0 4.0 9.0 6.0 2.0 1.0 10.0 9.0 7.0 1.0 7.0 9.0 7.0 1.0 6.0 7.0 6.0 2.0 8.0 5.0 3.0 10.0 -329.0 8.0 3.0 5.0 9.0 2.0 8.0 0.0 1.0 6.0 5.0 7.0 9.0 4.0 2.0 0.0 1.0 4.0 0.0 3.0 0.0 10.0 2.0 7.0 10.0 8.0 3.0 7.0 5.0 3.0 6.0 0.0 10.0 6.0 0.0 5.0 6.0 1.0 3.0 2.0 
6.0 5.0 10.0 4.0 6.0 10.0 7.0 6.0 6.0 5.0 7.0 5.0 3.0 8.0 5.0 4.0 8.0 7.0 0.0 2.0 1.0 6.0 0.0 0.0 0.0 2.0 9.0 6.0 8.0 -336.0 3.0 4.0 2.0 0.0 3.0 1.0 2.0 0.0 1.0 7.0 6.0 0.0 10.0 2.0 10.0 10.0 6.0 6.0 7.0 8.0 8.0 3.0 10.0 10.0 3.0 5.0 1.0 4.0 4.0 6.0 9.0 1.0 6.0 1.0 7.0 10.0 5.0 9.0 
9.0 5.0 4.0 3.0 4.0 8.0 3.0 3.0 5.0 9.0 2.0 9.0 7.0 4.0 2.0 2.0 7.0 2.0 1.0 4.0 1.0 7.0 1.0 9.0 9.0 1.0 10.0 1.0 3.0 3.0 -336.0 9.0 0.0 2.0 0.0 7.0 10.0 1.0 8.0 10.0 7.0 6.0 1.0 10.0 9.0 1.0 9.0 7.0 6.0 2.0 2.0 2.0 2.0 7.0 4.0 3.0 9.0 1.0 9.0 5.0 8.0 6.0 10.0 5.0 9.0 10.0 1.0 0.0 
9.0 3.0 5.0 1.0 4.0 9.0 9.0 7.0 8.0 10.0 4.0 6.0 5.0 2.0 7.0 8.0 6.0 10.0 4.0 10.0 2.0 2.0 0.0 8.0 3.0 5.0 6.0 5.0 5.0 4.0 9.0 -318.0 5.0 0.0 4.0 3.0 1.0 0.0 5.0 0.0 0.0 7.0 4.0 0.0 4.0 7.0 0.0 7.0 10.0 4.0 7.0 10.0 6.0 6.0 0.0 0.0 2.0 6.0 0.0 8.0 2.0 10.0 0.0 0.0 3.0 8.0 7.0 6.0 
7.0 10.0 10.0 4.0 6.0 10.0 7.0 6.0 0.0 8.0 3.0 4.0 8.0 10.0 9.0 8.0 0.0 6.0 10.0 7.0 0.0 2.0 3.0 2.0 3.0 10.0 8.0 7.0 9.0 2.0 0.0 5.0 -359.0 1.0 7.0 2.0 0.0 6.0 7.0 5.0 7.0 10.0 2.0 0.0 3.0 4.0 8.0 0.0 9.0 2.0 1.0 9.0 10.0 10.0 9.0 1.0 8.0 4.0 1.0 2.0 6.0 9.0 5.0 5.0 6.0 6.0 8.0 2.0 
2.0 8.0 4.0 3.0 7.0 4.0 2.0 1.0 8.0 9.0 1.0 8.0 2.0 8.0 7.0 4.0 5.0 4.0 4.0 8.0 4.0 6.0 7.0 10.0 2.0 7.0 6.0 7.0 2.0 0.0 2.0 0.0 1.0 -293.0 5.0 0.0 2.0 0.0 1.0 3.0 10.0 6.0 8.0 3.0 10.0 8.0 6.0 3.0 2.0 1.0 5.0 3.0 7.0 2.0 8.0 2.0 1.0 7.0 0.0 0.0 6.0 3.0 5.0 4.0 2.0 6.0 3.0 8.0 
6.0 10.0 3.0 10.0 10.0 1.0 10.0 4.0 10.0 2.0 9.0 10.0 3.0 9.0 1.0 5.0 9.0 10.0 2.0 9.0 7.0 2.0 0.0 5.0 5.0 2.0 7.0 1.0 8.0 3.0 0.0 4.0 7.0 5.0 -362.0 0.0 7.0 1.0 9.0 6.0 6.0 7.0 10.0 3.0 3.0 7.0 10.0 2.0 5.0 7.0 9.0 2.0 4.0 9.0 7.0 3.0 5.0 6.0 2.0 1.0 10.0 5.0 8.0 2.0 8.0 1.0 7.0 1.0 
7.0 6.0 7.0 6.0 3.0 7.0 3.0 8.0 9.0 1.0 1.0 8.0 9.0 10.0 6.0 10.0 0.0 7.0 0.0 9.0 7.0 9.0 3.0 3.0 3.0 10.0 9.0 9.0 0.0 1.0 7.0 3.0 2.0 0.0 0.0 -347.0 3.0 7.0 1.0 8.0 3.0 8.0 1.0 2.0 5.0 9.0 9.0 0.0 6.0 1.0 8.0 5.0 4.0 0.0 6.0 6.0 7.0 4.0 8.0 5.0 9.0 3.0 7.0 7.0 5.0 9.0 5.0 3.0 
1.0 10.0 2.0 8.0 6.0 9.0 9.0 6.0 2.0 0.0 4.0 4.0 1.0 0.0 0.0 1.0 6.0 3.0 9.0 4.0 7.0 8.0 8.0 3.0 5.0 0.0 4.0 10.0 1.0 2.0 10.0 1.0 0.0 2.0 7.0 3.0 -345.0 1.0 6.0 3.0 10.0 1.0 6.0 5.0 4.0 4.0 8.0 10.0 8.0 2.0 9.0 2.0 10.0 3.0 10.0 10.0 9.0 3.0 10.0 10.0 9.0 8.0 8.0 2.0 3.0 8.0 6.0 1.0 
2.0 6.0 8.0 7.0 2.0 9.0 2.0 10.0 7.0 5.0 7.0 1.0 3.0 2.0 4.0 7.0 6.0 7.0 9.0 7.0 8.0 8.0 6.0 10.0 8.0 2.0 9.0 7.0 6.0 0.0 1.0 0.0 6.0 0.0 1.0 7.0 1.0 -342.0 2.0 5.0 3.0 9.0 6.0 9.0 6.0 10.0 8.0 4.0 4.0 4.0 6.0 1.0 6.0 2.0 4.0 4.0 10.0 10.0 0.0 9.0 5.0 6.0 1.0 0.0 3.0 3.0 4.0 7.0 
1.0 4.0 9.0 3.0 0.0 9.0 4.0 3.0 8.0 4.0 5.0 4.0 0.0 7.0 7.0 9.0 9.0 8.0 4.0 2.0 7.0 1.0 10.0 8.0 3.0 8.0 5.0 2.0 5.0 1.0 8.0 5.0 7.0 1.0 9.0 1.0 6.0 2.0 -354.0 8.0 4.0 6.0 4.0 10.0 5.0 3.0 4.0 10.0 5.0 9.0 8.0 4.0 9.0 5.0 4.0 1.0 5.0 8.0 2.0 9.0 1.0 3.0 5.0 9.0 2.0 5.0 7.0 10.0 
10.0 2.0 6.0 2.0 10.0 2.0 7.0 6.0 2.0 7.0 1.0 0.0 8.0 7.0 6.0 8.0 4.0 1.0 10.0 9.0 6.0 5.0 8.0 3.0 6.0 8.0 2.0 10.0 7.0 7.0 10.0 0.0 5.0 3.0 6.0 8.0 3.0 5.0 8.0 -389.0 5.0 10.0 8.0 5.0 8.0 3.0 9.0 6.0 8.0 10.0 0.0 9.0 4.0 5.0 1.0 0.0 8.0 3.0 3.0 6.0 4.0 10.0 8.0 8.0 10.0 9.0 4.0 7.0 
6.0 3.0 5.0 6.0 5.0 4.0 0.0 7.0 1.0 9.0 5.0 0.0 7.0 8.0 3.0 5.0 10.0 4.0 0.0 3.0 2.0 2.0 9.0 2.0 9.0 2.0 8.0 3.0 9.0 6.0 7.0 0.0 7.0 10.0 6.0 3.0 10.0 3.0 4.0 5.0 -307.0 0.0 8.0 0.0 6.0 2.0 0.0 3.0 5.0 3.0 2.0 3.0 8.0 8.0 8.0 9.0 7.0 1.0 0.0 3.0 0.0 7.0 4.0 6.0 5.0 6.0 1.0 4.0 
8.0 6.0 6.0 8.0 6.0 6.0 2.0 3.0 8.0 9.0 10.0 2.0 0.0 4.0 8.0 0.0 7.0 8.0 9.0 7.0 0.0 10.0 0.0 9.0 7.0 3.0 8.0 9.0 4.0 0.0 6.0 7.0 10.0 6.0 7.0 8.0 1.0 9.0 6.0 10.0 0.0 -367.0 4.0 10.0 10.0 2.0 6.0 7.0 6.0 3.0 0.0 7.0 0.0 7.0 2.0 9.0 10.0 4.0 0.0 6.0 8.0 9.0 0.0 5.0 0.0 5.0 0.0 10.0 
3.0 8.0 3.0 4.0 4.0 2.0 0.0 6.0 0.0 5.0 10.0 5.0 8.0 6.0 5.0 2.0 7.0 6.0 8.0 8.0 4.0 9.0 9.0 4.0 9.0 1.0 7.0 5.0 2.0 10.0 1.0 4.0 2.0 8.0 10.0 1.0 6.0 6.0 4.0 8.0 8.0 4.0 -353.0 7.0 0.0 1.0 1.0 5.0 2.0 1.0 8.0 8.0 5.0 5.0 8.0 0.0 5.0 7.0 5.0 9.0 4.0 8.0 9.0 5.0 9.0 4.0 7.0 8.0 
8.0 2.0 0.0 3.0 9.0 9.0 9.0 8.0 6.0 5.0 10.0 9.0 10.0 7.0 0.0 4.0 6.0 2.0 2.0 9.0 9.0 10.0 6.0 0.0 8.0 6.0 6.0 7.0 0.0 2.0 10.0 0.0 0.0 3.0 3.0 2.0 5.0 9.0 10.0 5.0 0.0 10.0 7.0 -366.0 8.0 1.0 2.0 10.0 10.0 7.0 10.0 5.0 9.0 8.0 5.0 4.0 6.0 5.0 6.0 1.0 8.0 0.0 3.0 3.0 2.0 2.0 9.0 6.0 
1.0 9.0 3.0 1.0 5.0 4.0 1.0 3.0 7.0 2.0 1.0 1.0 4.0 8.0 8.0 7.0 5.0 3.0 8.0 8.0 3.0 9.0 5.0 5.0 8.0 6.0 3.0 1.0 1.0 10.0 9.0 4.0 3.0 10.0 3.0 5.0 4.0 6.0 5.0 8.0 6.0 10.0 0.0 8.0 -337.0 1.0 4.0 2.0 5.0 0.0 8.0 1.0 10.0 9.0 1.0 7.0 7.0 2.0 9.0 6.0 7.0 2.0 3.0 8.0 5.0 6.0 7.0 6.0 
7.0 7.0 0.0 3.0 7.0 9.0 1.0 3.0 1.0 0.0 1.0 1.0 2.0 0.0 6.0 7.0 7.0 4.0 5.0 2.0 7.0 1.0 9.0 10.0 1.0 3.0 7.0 6.0 4.0 10.0 1.0 7.0 4.0 8.0 7.0 9.0 4.0 10.0 3.0 3.0 2.0 2.0 1.0 1.0 1.0 -296.0 8.0 4.0 1.0 9.0 5.0 3.0 5.0 5.0 0.0 3.0 9.0 0.0 9.0 8.0 4.0 0.0 0.0 8.0 0.0 6.0 9.0 6.0 
6.0 10.0 7.0 7.0 2.0 4.0 9.0 6.0 9.0 0.0 2.0 2.0 1.0 0.0 1.0 0.0 3.0 2.0 2.0 9.0 1.0 6.0 5.0 4.0 0.0 4.0 5.0 0.0 0.0 6.0 9.0 0.0 8.0 6.0 10.0 9.0 8.0 8.0 4.0 9.0 0.0 6.0 1.0 2.0 4.0 8.0 -311.0 3.0 7.0 6.0 7.0 5.0 9.0 4.0 2.0 5.0 9.0 3.0 0.0 1.0 7.0 2.0 0.0 8.0 6.0 5.0 9.0 8.0 
6.0 7.0 0.0 4.0 4.0 4.0 2.0 0.0 4.0 10.0 6.0 10.0 5.0 5.0 7.0 3.0 2.0 6.0 4.0 7.0 3.0 4.0 5.0 10.0 5.0 7.0 7.0 4.0 3.0 6.0 7.0 7.0 0.0 3.0 2.0 0.0 10.0 4.0 10.0 6.0 3.0 7.0 5.0 10.0 2.0 4.0 3.0 -343.0 2.0 3.0 0.0 9.0 3.0 4.0 6.0 5.0 3.0 6.0 2.0 10.0 7.0 9.0 6.0 0.0 9.0 10.0 10.0 6.0 
5.0 3.0 8.0 9.0 10.0 3.0 5.0 1.0 9.0 8.0 1.0 1.0 9.0 10.0 6.0 3.0 2.0 5.0 6.0 6.0 7.0 0.0 2.0 9.0 7.0 3.0 1.0 8.0 0.0 7.0 6.0 10.0 9.0 2.0 5.0 6.0 8.0 4.0 5.0 8.0 5.0 6.0 2.0 10.0 5.0 1.0 7.0 2.0 -353.0 3.0 7.0 5.0 1.0 4.0 6.0 10.0 9.0 2.0 1.0 5.0 3.0 6.0 7.0 3.0 10.0 5.0 6.0 5.0 
5.0 2.0 6.0 1.0 8.0 0.0 1.0 10.0 9.0 1.0 8.0 0.0 9.0 0.0 9.0 1.0 7.0 4.0 1.0 4.0 2.0 10.0 3.0 9.0 10.0 0.0 5.0 3.0 10.0 8.0 2.0 4.0 2.0 1.0 7.0 1.0 2.0 4.0 9.0 10.0 3.0 3.0 1.0 7.0 0.0 9.0 6.0 3.0 3.0 -320.0 0.0 8.0 4.0 9.0 4.0 6.0 10.0 4.0 8.0 2.0 8.0 1.0 6.0 6.0 4.0 1.0 10.0 6.0 
4.0 2.0 7.0 4.0 9.0 6.0 7.0 4.0 4.0 9.0 2.0 1.0 2.0 9.0 6.0 10.0 1.0 2.0 4.0 7.0 4.0 2.0 0.0 7.0 6.0 6.0 1.0 0.0 2.0 8.0 2.0 7.0 1.0 5.0 9.0 8.0 9.0 6.0 8.0 0.0 2.0 0.0 8.0 10.0 8.0 5.0 7.0 0.0 7.0 0.0 -337.0 10.0 5.0 9.0 9.0 5.0 9.0 2.0 8.0 5.0 3.0 4.0 1.0 8.0 4.0 8.0 3.0 6.0 
3.0 1.0 2.0 2.0 9.0 8.0 5.0 8.0 2.0 6.0 9.0 3.0 9.0 1.0 1.0 3.0 4.0 6.0 0.0 9.0 9.0 2.0 7.0 9.0 2.0 4.0 8.0 1.0 7.0 3.0 2.0 10.0 9.0 3.0 2.0 5.0 2.0 1.0 4.0 9.0 3.0 7.0 8.0 5.0 1.0 3.0 5.0 9.0 5.0 8.0 10.0 -334.0 9.0 8.0 7.0 10.0 1.0 5.0 5.0 10.0 2.0 5.0 5.0 0.0 1.0 2.0 8.0 2.0 
10.0 7.0 9.0 4.0 10.0 0.0 5.0 1.0 7.0 9.0 9.0 5.0 10.0 4.0 5.0 8.0 0.0 2.0 10.0 4.0 5.0 1.0 0.0 5.0 9.0 2.0 4.0 3.0 10.0 10.0 2.0 6.0 10.0 7.0 4.0 4.0 10.0 6.0 9.0 4.0 8.0 0.0 5.0 9.0 10.0 5.0 9.0 3.0 1.0 4.0 5.0 9.0 -378.0 4.0 10.0 5.0 4.0 10.0 6.0 9.0 5.0 7.0 5.0 2.0 0.0 3.0 6.0 4.0 
9.0 2.0 5.0 10.0 0.0 8.0 9.0 5.0 7.0 5.0 3.0 9.0 0.0 1.0 0.0 0.0 2.0 2.0 3.0 9.0 2.0 1.0 0.0 1.0 10.0 10.0 9.0 8.0 8.0 10.0 7.0 6.0 10.0 2.0 9.0 0.0 3.0 2.0 5.0 5.0 8.0 7.0 5.0 8.0 9.0 5.0 4.0 4.0 4.0 9.0 9.0 8.0 4.0 -349.0 3.0 5.0 7.0 2.0 5.0 10.0 10.0 10.0 1.0 1.0 1.0 5.0 1.0 7.0 
4.0 3.0 10.0 5.0 4.0 3.0 8.0 7.0 9.0 10.0 5.0 1.0 5.0 5.0 2.0 0.0 5.0 8.0 2.0 2.0 0.0 9.0 4.0 5.0 4.0 10.0 7.0 9.0 3.0 3.0 4.0 0.0 9.0 8.0 7.0 6.0 10.0 4.0 4.0 1.0 8.0 2.0 8.0 5.0 1.0 0.0 2.0 6.0 6.0 4.0 9.0 7.0 10.0 3.0 -340.0 10.0 2.0 7.0 6.0 1.0 5.0 1.0 9.0 10.0 10.0 0.0 2.0 1.0 
8.0 8.0 8.0 7.0 4.0 10.0 3.0 9.0 0.0 1.0 10.0 10.0 7.0 4.0 3.0 2.0 9.0 7.0 10.0 7.0 7.0 4.0 9.0 1.0 7.0 10.0 8.0 10.0 7.0 5.0 3.0 0.0 1.0 2.0 3.0 6.0 10.0 4.0 1.0 0.0 9.0 9.0 0.0 4.0 7.0 3.0 5.0 5.0 10.0 6.0 5.0 10.0 5.0 5.0 10.0 -361.0 2.0 0.0 2.0 1.0 1.0 1.0 5.0 10.0 5.0 2.0 4.0 10.0 
9.0 3.0 1.0 10.0 6.0 3.0 3.0 0.0 2.0 3.0 4.0 5.0 7.0 6.0 10.0 1.0 10.0 3.0 8.0 9.0 0.0 6.0 8.0 5.0 10.0 0.0 6.0 8.0 5.0 1.0 9.0 2.0 8.0 1.0 5.0 7.0 9.0 10.0 5.0 8.0 7.0 10.0 5.0 6.0 7.0 9.0 9.0 3.0 9.0 10.0 9.0 1.0 4.0 7.0 2.0 2.0 -356.0 3.0 5.0 5.0 1.0 1.0 2.0 6.0 0.0 5.0 4.0 8.0 
4.0 3.0 1.0 1.0 3.0 7.0 1.0 8.0 4.0 4.0 3.0 5.0 4.0 10.0 6.0 10.0 6.0 7.0 2.0 6.0 3.0 7.0 8.0 10.0 4.0 1.0 10.0 1.0 3.0 4.0 1.0 6.0 4.0 7.0 6.0 4.0 3.0 10.0 8.0 3.0 1.0 4.0 7.0 5.0 2.0 0.0 3.0 6.0 2.0 4.0 2.0 5.0 10.0 2.0 7.0 0.0 3.0 -299.0 7.0 1.0 3.0 6.0 1.0 7.0 3.0 7.0 0.0 3.0 
8.0 4.0 5.0 0.0 8.0 4.0 1.0 1.0 0.0 5.0 0.0 5.0 2.0 0.0 8.0 0.0 0.0 1.0 1.0 4.0 6.0 0.0 1.0 0.0 4.0 7.0 10.0 4.0 6.0 4.0 9.0 0.0 1.0 0.0 2.0 8.0 10.0 0.0 2.0 3.0 0.0 0.0 5.0 6.0 9.0 9.0 0.0 2.0 1.0 8.0 8.0 5.0 6.0 5.0 6.0 2.0 5.0 7.0 -256.0 1.0 10.0 1.0 3.0 4.0 8.0 5.0 5.0 1.0 
7.0 2.0 1.0 4.0 3.0 6.0 4.0 8.0 0.0 3.0 7.0 0.0 6.0 3.0 8.0 7.0 0.0 5.0 2.0 9.0 0.0 2.0 3.0 9.0 6.0 7.0 2.0 7.0 0.0 6.0 5.0 8.0 2.0 0.0 1.0 5.0 10.0 9.0 9.0 6.0 3.0 6.0 9.0 1.0 6.0 8.0 1.0 10.0 5.0 2.0 5.0 10.0 9.0 10.0 1.0 1.0 5.0 1.0 1.0 -331.0 8.0 3.0 7.0 8.0 2.0 9.0 8.0 10.0 
2.0 3.0 5.0 7.0 7.0 7.0 0.0 4.0 7.0 8.0 10.0 6.0 9.0 4.0 8.0 2.0 7.0 4.0 6.0 3.0 1.0 10.0 9.0 1.0 5.0 5.0 5.0 7.0 10.0 9.0 8.0 2.0 6.0 6.0 10.0 9.0 9.0 5.0 1.0 4.0 0.0 8.0 4.0 8.0 7.0 4.0 7.0 7.0 3.0 8.0 3.0 2.0 5.0 10.0 5.0 1.0 1.0 3.0 10.0 8.0 -381.0 5.0 9.0 2.0 10.0 10.0 0.0 10.0 
6.0 2.0 3.0 8.0 0.0 3.0 5.0 10.0 6.0 7.0 4.0 2.0 9.0 4.0 2.0 7.0 3.0 9.0 8.0 1.0 6.0 5.0 3.0 8.0 3.0 8.0 8.0 7.0 6.0 1.0 6.0 10.0 9.0 3.0 5.0 3.0 8.0 6.0 3.0 10.0 7.0 9.0 8.0 0.0 2.0 0.0 2.0 9.0 6.0 1.0 4.0 5.0 7.0 10.0 1.0 1.0 1.0 6.0 1.0 3.0 5.0 -326.0 3.0 8.0 5.0 1.0 0.0 4.0 
3.0 4.0 6.0 9.0 8.0 1.0 0.0 3.0 5.0 8.0 1.0 2.0 1.0 10.0 1.0 1.0 3.0 0.0 4.0 0.0 2.0 1.0 9.0 2.0 7.0 3.0 2.0 7.0 0.0 6.0 10.0 0.0 5.0 5.0 8.0 7.0 8.0 1.0 5.0 8.0 4.0 0.0 9.0 3.0 3.0 0.0 0.0 6.0 7.0 6.0 1.0 5.0 5.0 1.0 9.0 5.0 2.0 1.0 3.0 7.0 9.0 3.0 -270.0 2.0 3.0 8.0 2.0 0.0 
1.0 0.0 9.0 9.0 8.0 6.0 0.0 2.0 2.0 0.0 10.0 3.0 3.0 10.0 8.0 10.0 9.0 1.0 4.0 5.0 8.0 6.0 1.0 0.0 8.0 0.0 8.0 3.0 5.0 1.0 5.0 0.0 5.0 4.0 2.0 7.0 2.0 0.0 9.0 8.0 6.0 5.0 5.0 3.0 8.0 8.0 8.0 0.0 3.0 6.0 8.0 0.0 2.0 1.0 10.0 10.0 6.0 7.0 4.0 8.0 2.0 8.0 2.0 -323.0 3.0 4.0 5.0 9.0 
7.0 0.0 5.0 9.0 5.0 8.0 4.0 0.0 4.0 5.0 9.0 10.0 0.0 9.0 7.0 3.0 6.0 10.0 4.0 1.0 5.0 8.0 9.0 10.0 6.0 1.0 5.0 2.0 6.0 7.0 9.0 3.0 6.0 2.0 8.0 5.0 3.0 3.0 2.0 10.0 5.0 0.0 9.0 2.0 5.0 0.0 6.0 9.0 10.0 4.0 4.0 1.0 0.0 1.0 10.0 5.0 0.0 3.0 8.0 2.0 10.0 5.0 3.0 3.0 -335.0 6.0 2.0 6.0 
8.0 0.0 8.0 2.0 7.0 7.0 5.0 8.0 8.0 7.0 6.0 1.0 9.0 9.0 1.0 1.0 10.0 2.0 6.0 0.0 3.0 2.0 2.0 6.0 8.0 10.0 2.0 10.0 1.0 10.0 10.0 8.0 6.0 6.0 1.0 9.0 8.0 3.0 5.0 9.0 6.0 5.0 4.0 2.0 6.0 6.0 5.0 10.0 5.0 1.0 8.0 2.0 3.0 5.0 0.0 2.0 5.0 7.0 5.0 9.0 10.0 1.0 8.0 4.0 6.0 -358.0 5.0 4.0 
1.0 0.0 0.0 9.0 3.0 9.0 8.0 7.0 6.0 5.0 4.0 10.0 0.0 7.0 8.0 1.0 4.0 3.0 2.0 9.0 8.0 7.0 5.0 8.0 3.0 4.0 2.0 2.0 3.0 5.0 1.0 7.0 8.0 3.0 7.0 5.0 6.0 4.0 7.0 4.0 1.0 0.0 7.0 9.0 7.0 9.0 9.0 10.0 6.0 10.0 3.0 8.0 6.0 1.0 2.0 4.0 4.0 0.0 5.0 8.0 0.0 0.0 2.0 5.0 2.0 5.0 -326.0 8.0 
4.0 0.0 8.0 1.0 6.0 2.0 6.0 7.0 6.0 4.0 2.0 9.0 9.0 3.0 4.0 10.0 5.0 7.0 10.0 3.0 4.0 5.0 3.0 10.0 5.0 0.0 8.0 2.0 2.0 9.0 0.0 6.0 2.0 8.0 1.0 3.0 1.0 7.0 10.0 7.0 4.0 10.0 8.0 6.0 6.0 6.0 8.0 6.0 5.0 6.0 6.0 2.0 4.0 7.0 1.0 10.0 8.0 3.0 1.0 10.0 10.0 4.0 0.0 9.0 6.0 4.0 8.0 -357.0 

